D:\EncodingJSSP\abz9\L662>D:\minisat.exe abz9_L662_encoded.cnf abz9_L662_result.txt
============================[ Problem Statistics ]=============================
|                                                                             |
|  Number of variables:        403780                                         |
|  Number of clauses:         2655965                                         |
|  Parse time:                   4.47 s                                       |
|                                                                             |
============================[ Search Statistics ]==============================
| Conflicts |          ORIGINAL         |          LEARNT          | Progress |
|           |    Vars  Clauses Literals |    Limit  Clauses Lit/Cl |          |
===============================================================================
|       100 |  179040  1962389  5032310 |   719542      100     23 | 55.659 % |
|       250 |  179040  1962389  5032310 |   791496      250     29 | 55.659 % |
|       475 |  179040  1962389  5032310 |   870646      475     26 | 55.659 % |
|       812 |  179040  1962389  5032310 |   957711      812     21 | 55.659 % |
|      1318 |  179040  1962389  5032310 |  1053482     1318     18 | 55.659 % |
|      2077 |  179040  1962389  5032310 |  1158830     2077     18 | 55.659 % |
|      3216 |  179040  1962389  5032310 |  1274713     3216     17 | 55.659 % |
|      4924 |  179040  1962389  5032310 |  1402185     4924     16 | 55.659 % |
|      7486 |  179040  1962389  5032310 |  1542403     7486     16 | 55.659 % |
|     11330 |  179040  1962389  5032310 |  1696643    11330     16 | 55.659 % |
|     17096 |  179040  1962389  5032310 |  1866308    17096     16 | 55.659 % |
|     25745 |  179040  1962389  5032310 |  2052939    25745     16 | 55.659 % |
|     38719 |  179040  1962389  5032310 |  2258233    38719     18 | 55.659 % |
|     58180 |  179040  1962389  5032310 |  2484056    58180     19 | 55.659 % |
|     87372 |  179040  1962389  5032310 |  2732461    87372     19 | 55.659 % |
|    131161 |  179040  1962389  5032310 |  3005708   131161     19 | 55.659 % |
|    196845 |  179040  1962389  5032310 |  3306278   196845     20 | 55.659 % |
|    295371 |  179040  1962389  5032310 |  3636906   295371     21 | 55.659 % |
|    443160 |  179040  1962389  5032310 |  4000597   443160     22 | 55.659 % |
|    664843 |  178559  1950326  5002473 |  4400657   616763     23 | 55.778 % |
|    997368 |  178559  1950326  5002473 |  4840723   949288     26 | 55.778 % |
===============================================================================
restarts              : 2282
conflicts             : 1202447        (112 /sec)
decisions             : 1630605        (0.00 % random) (152 /sec)
propagations          : 11384064503    (1061037 /sec)
conflict literals     : 33041208       (42.74 % deleted)
CPU time              : 10729.2 s

UNSATISFIABLE